000 000 000 000 -99 -99 000 000 -99 -99 -99 -99 000 000 000 -99 000 000 000 000 000 000 -99 000 000 000 000 -99 000 000 000
-99 000 000 000 000 000 000 000 000 -99 -99 -99 -99 000 000 000 -99 000 001 000 000 000 000 -99 000 000 000 -99 -99 000 000
-99 000 000 000 000 000 -99 000 000 -99 -99 -99 -99 000 000 000 000 000 000 002 000 000 000 000 000 000 000 000 000 000 000
000 000 000 000 000 000 000 000 000 000 -99 000 000 000 000 000 000 000 000 001 001 000 000 000 000 000 001 001 000 001 001
000 000 000 000 000 000 000 000 000 000 -99 000 000 000 000 000 000 000 000 001 003 003 000 000 002 010 015 007 006 006 001
000 000 000 000 000 000 000 000 000 000 000 000 000 000 000 001 001 000 000 001 003 005 005 001 012 029 064 022 009 007 003
000 000 000 000 000 000 000 000 000 000 000 000 000 000 000 000 002 002 001 002 004 005 007 002 008 030 107 047 031 030 006
000 000 000 000 000 000 000 000 000 000 000 000 000 000 000 001 002 003 002 003 004 007 004 004 012 033 054 078 047 030 005
000 000 000 000 000 000 000 000 000 000 000 000 000 000 000 000 001 003 004 004 005 021 010 013 035 041 085 056 047 021 007
000 000 000 000 000 000 000 000 000 000 000 000 000 000 000 001 001 002 003 004 007 011 017 010 022 105 118 072 024 013 004
000 000 000 000 000 000 000 000 000 000 000 000 000 000 000 000 002 002 003 004 005 009 014 023 109 230 187 078 019 010 005
000 000 000 000 000 000 000 000 000 000 000 000 000 000 000 000 001 002 003 003 004 008 010 027 087 140 102 068 021 007 008
000 000 000 000 000 000 000 000 -99 -99 000 000 000 000 000 000 002 002 002 002 003 007 010 008 034 069 066 024 012 007 014
000 000 000 000 000 000 000 000 000 -99 -99 000 000 000 000 001 002 003 004 002 002 004 006 010 013 020 013 004 004 006 017
000 000 000 000 000 000 000 -99 -99 -99 000 000 000 000 001 002 005 009 024 013 004 005 006 013 008 007 009 004 006 008 033
000 000 000 000 000 000 000 000 -99 000 000 000 000 002 002 004 010 021 048 040 008 006 012 011 005 005 007 006 006 012 030
000 000 000 000 000 000 000 000 000 000 000 000 001 002 003 005 012 027 083 077 047 048 034 019 006 006 006 014 015 007 017
000 000 000 000 -99 000 000 000 000 000 000 001 001 005 004 005 015 017 071 100 140 165 089 069 016 009 007 015 028 008 013
000 000 000 000 -99 -99 -99 000 000 000 000 001 002 008 007 005 015 016 098 129 172 216 191 140 031 018 012 008 005 002 005
000 000 000 000 000 -99 000 000 000 000 000 000 002 006 006 006 010 019 050 114 165 152 211 283 064 026 013 006 003 002 006
000 000 000 000 000 000 -99 000 000 000 000 000 001 002 004 005 009 017 052 140 114 100 058 078 054 013 008 003 003 003 005
000 000 000 000 000 000 000 000 000 000 000 000 000 000 001 002 004 011 035 109 078 048 031 045 035 010 005 003 003 003 003
000 000 000 000 000 000 000 000 000 000 000 000 000 000 000 001 003 009 029 085 061 024 013 015 009 004 003 004 002 001 001
000 000 000 000 000 000 000 000 000 000 000 001 001 000 000 002 003 010 026 057 053 023 015 008 003 002 -99 -99 -99 000 000
000 000 000 000 000 000 000 000 000 000 000 002 004 002 003 002 002 006 014 023 021 015 010 004 003 -99 -99 -99 -99 -99 000
-99 000 000 000 000 000 000 -99 -99 000 000 002 002 001 001 001 000 002 003 004 005 006 002 002 -99 -99 -99 -99 -99 -99 000
-99 -99 -99 000 000 000 000 -99 -99 -99 000 000 000 000 000 000 000 000 000 000 001 000 000 -99 -99 -99 -99 -99 -99 -99 -99
000 -99 -99 000 000 000 000 000 000 -99 -99 000 000 000 000 000 000 000 000 000 000 000 000 -99 -99 -99 -99 -99 -99 -99 -99
-99 -99 000 000 000 000 000 000 000 -99 -99 -99 -99 000 000 000 000 000 000 000 000 000 -99 -99 -99 -99 -99 -99 -99 -99 -99
000 000 000 000 000 000 000 000 000 -99 -99 -99 -99 -99 000 000 000 000 000 000 -99 000 -99 -99 -99 -99 -99 -99 -99 -99 -99
000 000 000 000 000 000 000 000 000 -99 -99 -99 -99 000 000 000 000 000 000 000 -99 000 -99 000 -99 000 000 -99 -99 -99 -99
000 000 000 000 000 000 000 000 000 -99 -99 -99 -99 -99 000 000 000 000 000 -99 000 000 000 000 000 000 000 -99 -99 -99 -99
000 000 000 000 000 000 000 000 000 -99 -99 -99 -99 000 000 000 000 000 000 -99 000 000 000 000 000 000 -99 -99 000 -99 -99
000 000 000 -99 000 000 000 000 000 000 -99 -99 -99 000 000 000 000 000 -99 -99 000 000 000 000 000 000 000 000 000 000 -99
-99 000 000 000 000 000 000 000 000 000 -99 -99 -99 000 000 000 000 000 000 000 000 000 000 000 000 000 000 000 000 000 -99
000 000 000 000 000 000 000 000 000 000 -99 000 -99 -99 000 000 000 000 000 000 000 000 000 000 000 000 000 000 000 -99 -99
000 000 -99 000 000 -99 -99 000 000 000 000 000 -99 -99 000 000 000 -99 000 -99 000 000 -99 000 000 000 000 000 000 -99 -99
000 000 -99 -99 -99 -99 -99 -99 -99 -99 -99 -99 -99 000 000 000 000 -99 000 -99 000 -99 -99 000 000 000 000 -99 -99 -99 -99
000 000 000 -99 -99 -99 -99 -99 -99 -99 -99 -99 000 000 000 000 000 -99 -99 -99 000 -99 000 000 000 000 000 -99 -99 -99 -99
000 000 000 000 -99 -99 -99 -99 -99 -99 -99 000 000 000 000 000 000 -99 -99 -99 -99 -99 000 000 -99 000 000 -99 -99 -99 -99
-99 000 000 -99 -99 -99 -99 -99 -99 -99 000 000 000 000 -99 000 000 -99 -99 -99 -99 -99 000 000 -99 000 000 -99 -99 -99 -99
000 000 -99 -99 -99 -99 -99 000 -99 -99 000 000 000 -99 -99 -99 -99 000 -99 -99 -99 -99 000 -99 000 000 -99 -99 -99 -99 -99
000 -99 -99 -99 -99 -99 -99 -99 000 -99 000 000 000 -99 -99 000 000 000 000 000 000 -99 -99 -99 000 000 -99 -99 -99 -99 -99
-99 -99 -99 -99 -99 -99 -99 -99 -99 -99 -99 -99 000 -99 000 000 000 000 -99 000 000 -99 -99 -99 000 000 -99 -99 -99 -99 -99
000 -99 -99 -99 -99 -99 000 -99 -99 -99 -99 000 000 -99 000 000 000 -99 -99 000 000 -99 -99 000 000 -99 -99 -99 -99 -99 -99
000 -99 -99 -99 -99 000 000 -99 -99 -99 -99 -99 -99 000 000 000 000 -99 000 000 000 000 000 000 000 -99 -99 -99 -99 -99 -99
000 -99 -99 -99 000 000 000 000 000 000 -99 -99 -99 -99 000 -99 -99 000 000 000 000 000 000 000 -99 -99 000 -99 -99 -99 -99
000 000 000 000 000 000 000 000 000 000 -99 -99 -99 -99 -99 -99 -99 000 000 000 000 000 000 000 000 000 -99 -99 -99 -99 -99
000 000 000 000 000 000 000 000 000 000 000 -99 -99 -99 -99 -99 000 000 -99 -99 -99 000 000 -99 000 000 -99 -99 -99 -99 -99
000 000 000 000 000 000 001 000 000 000 000 -99 -99 -99 -99 -99 000 000 -99 -99 000 000 000 -99 000 000 -99 000 -99 -99 -99
000 000 000 000 000 000 001 000 000 000 000 -99 -99 -99 -99 -99 000 -99 -99 -99 000 000 000 -99 -99 -99 -99 -99 -99 -99 -99
000 000 000 000 000 000 000 000 000 000 000 -99 -99 -99 -99 -99 -99 -99 -99 000 000 000 -99 -99 -99 -99 -99 -99 -99 -99 -99
000 000 000 000 000 000 -99 -99 000 000 -99 -99 -99 -99 -99 -99 -99 000 000 000 000 000 -99 000 000 -99 -99 -99 -99 -99 -99
-99 000 000 000 000 000 000 000 -99 -99 -99 -99 -99 -99 -99 -99 000 000 000 000 000 000 -99 -99 000 -99 -99 -99 -99 -99 -99
-99 -99 000 000 000 000 -99 000 -99 -99 -99 -99 -99 -99 -99 000 000 000 000 000 000 -99 -99 -99 -99 -99 -99 -99 -99 -99 -99
